6296.92
68 139 131 122 25 25 142 142 142 57 3 142 142 68 25 3 122 68 122 142 3 142 68 3 142 68 3 142 142 3 68 142 25 25 142 131 3 142 68 25 142 142 68 3 3 57 25 25 25 3 3 3 57 3 57 3 3 25 68 25 142 57 142 142 142 57 25 142 125 3 25 25 142 3 57 25 25 68 57 68 142 113 142 25 68 3 142 68 3 25 142 122 142 25 3 57 3 25 3 25 25 25 142 25 68 142 29 25 25 68 139 3 122 25 3 142 142 142 25 25 142 25 3 68 25 142 68 25 3 142 142 25 3 3 57 25 3 68 25 142 57 142 25 142 57 68 3 3 25 25 3 142 25 68 142 3 142 68 142 25 142 68 25 142 142 3 68 25 3 68 142 122 3 3 142 25 142 25 3 25 29 3 142 68 142 3 142 142 142 68 29 3 142 3 57 3 142 122 142 3 
